LiNbO3 (Generated by CrystalMaker X for Windows and then rotated)
    1.0
       5.14829    	   0.0   		   0.0
       -2.574145       4.45855    	   0.0
       0.0             0.0    		  13.86310
 Li  Nb  O 
 6  6  18 
Direct
       0.0000000000    0.0000000000    0.2250000000
       0.0000000000    0.0000000000    0.7250000000
       0.6666666667    0.3333333333    0.5583333333
       0.3333333333    0.6666666667    0.8916666667
       0.6666666667    0.3333333333    0.0583333333
       0.3333333333    0.6666666667    0.3916666667
       0.0000000000    0.0000000000    0.0000000000
       0.0000000000    0.0000000000    0.5000000000
       0.6666666667    0.3333333333    0.3333333333
       0.3333333333    0.6666666667    0.6666666667
       0.6666666667    0.3333333333    0.8333333333
       0.3333333333    0.6666666667    0.1666666667
       0.0509000000    0.3587000000    0.0527000000
       0.6413000000    0.6922000000    0.0527000000
       0.3078000000    0.9491000000    0.0527000000
       0.6413000000    0.9491000000    0.5527000000
       0.3078000000    0.3587000000    0.5527000000
       0.0509000000    0.6922000000    0.5527000000
       0.7175666667    0.6920333333    0.3860333333
       0.3842333333    0.0253666667    0.7193666667
       0.3079666667    0.0255333333    0.3860333333
       0.9746333333    0.3588666667    0.7193666667
       0.9744666667    0.2824333333    0.3860333333
       0.6411333333    0.6157666667    0.7193666667
       0.3079666667    0.2824333333    0.8860333333
       0.9746333333    0.6157666667    0.2193666667
       0.9744666667    0.6920333333    0.8860333333
       0.6411333333    0.0253666667    0.2193666667
       0.7175666667    0.0255333333    0.8860333333
       0.3842333333    0.3588666667    0.2193666667
